============================[ Problem Statistics ]=============================|                                                                             ||  Number of variables:          4242                                         ||  Number of clauses:           10006                                         ||  Parse time:                   0.40 s                                       ||                                                                             |============================[ Search Statistics ]==============================| Conflicts |          ORIGINAL         |          LEARNT          | Progress ||           |    Vars  Clauses Literals |    Limit  Clauses Lit/Cl |          |===============================================================================|       100 |    1591     6211   629102 |     2277      100     53 | 62.501 % |===============================================================================restarts              : 3conflicts             : 227            (378 /sec)decisions             : 493            (0.00 % random) (822 /sec)propagations          : 11705          (19508 /sec)conflict literals     : 16683          (95.00 % deleted)CPU time              : 0.6 sSATISFIABLE